(declare-const term_to_project_onto8_integralized Int)
(declare-const term_to_project_onto2_integralized Int)
(declare-const term_to_project_onto7_integralized Int)
(declare-const term_to_project_onto5_integralized Int)
(declare-const term_to_project_onto1_integralized Int)
(declare-const term_to_project_onto0_integralized Int)
(declare-const term_to_project_onto4_integralized Int)
(declare-const term_to_project_onto3_integralized Int)
(declare-const term_to_project_onto_integralized Int)
(declare-const term_to_project_onto9_integralized Int)
(declare-const term_to_project_onto6_integralized Int)
(declare-const tmp___0 Int)
(assert (exists
         ((uninterp?1?1 Int) (uninterp?2?2 Int) (uninterp?3?3 Int)
            (uninterp?4?4 Int) (uninterp?5?5 Int) (uninterp?6?6 Int)
            (uninterp?7?7 Int) (uninterp?8?8 Int) (uninterp?9?9 Int)
            (uninterp?10?10 Int) (|tmp___0'?11?11| Int) (|s'?12?12| Int)
            (|r'?13?13| Int) (|q'?14?14| Int) (|p'?15?15| Int)
            (|b'?16?16| Int) (|a'?17?17| Int) (|counter'?18?18| Int)
            (|c'?19?19| Int) (|k'?20?20| Int) (|tmp'?21?21| Int)
            (K?22?22 Int) (|tmp'?23?23| Int) (|k'?24?24| Int)
            (|c'?25?25| Int) (|counter'?26?26| Int) (q?27?27 Int)
            (s?28?28 Int) (r?29?29 Int) (p?30?30 Int) (k?31?31 Int)
            (c?32?32 Int) (tmp?33?33 Int) (a?34?34 Int) (b?35?35 Int)
            (counter?36?36 Int) (y?37?37 Int) (x?38?38 Int))
         (and (= k?31?31 0) (<= (- c?32?32) 0) (<= (+ (- a?34?34) 1) 0)
                (<= (+ (- b?35?35) 1) 0) (<= (- counter?36?36) 0)
                (<= (+ (- y?37?37) 1) 0) (<= (+ (- x?38?38) 1) 0)
                (= k?31?31 0) (<= counter?36?36 0)
                (or (<= (+ b?35?35 1) 0) (<= (+ (- b?35?35) 1) 0))
                (<= K?22?22 0) (= K?22?22 0)
                (= (+ (- |tmp'?21?21|) tmp?33?33) 0) (= (- |k'?20?20|) 0)
                (= (+ (- |c'?19?19|) a?34?34) 0)
                (= (+ (- |counter'?18?18|) counter?36?36 1) 0)
                (<= (- K?22?22) 0) (= |k'?20?20| 0)
                (<= (+ (- |c'?19?19|) 1) 0) (<= (+ (- a?34?34) 1) 0)
                (<= (+ (- b?35?35) 1) 0) (<= (+ (- |counter'?18?18|) 1) 0)
                (<= (+ (- y?37?37) 1) 0) (<= (+ (- x?38?38) 1) 0)
                (= |k'?20?20| 0)
                (or (and (<= |counter'?18?18| 0)
                           (= (+ (- |c'?19?19|) (- uninterp?10?10) a?34?34) 0)
                           (= (+ (- uninterp?9?9) (- uninterp?8?8) a?34?34) 0)
                           (= (+ (- uninterp?7?7) (- uninterp?6?6) b?35?35) 0)
                           (= (+ uninterp?5?5 uninterp?4?4 (- uninterp?7?7)
                                   (- uninterp?6?6) (- uninterp?3?3) b?35?35) 0)
                           (<= (+ |c'?19?19| (- b?35?35) 1) 0))
                      (<= (+ (- |counter'?18?18|) 1) 0))
                (= (+ |tmp___0'?11?11| (- counter?36?36)) 0)
                (= (+ |tmp'?23?23| (- |counter'?18?18|)) 0)
                (= (+ |k'?24?24| (- |k'?20?20|)) 0)
                (= (+ |c'?25?25| (- |c'?19?19|)) 0)
                (= (+ |s'?12?12| (- r?29?29) uninterp?2?2) 0)
                (= (+ |r'?13?13| (- s?28?28)) 0)
                (= (+ |q'?14?14| (- p?30?30) uninterp?1?1) 0)
                (= (+ |p'?15?15| (- q?27?27)) 0)
                (= (+ |b'?16?16| (- |c'?19?19|)) 0)
                (= (+ |a'?17?17| (- b?35?35)) 0)
                (= (+ |counter'?26?26| (- |counter'?18?18|) -1) 0)
                (<= (- uninterp?1?1) 0) (<= uninterp?1?1 0)
                (<= (- uninterp?2?2) 0) (<= uninterp?2?2 0)
                (<= (+ 1 (- uninterp?3?3)) 0)
                (<= (+ b?35?35 (- uninterp?3?3)) 0)
                (<= (+ y?37?37 (- uninterp?3?3)) 0)
                (<= (+ s?28?28 (- uninterp?6?6)) 0)
                (<= (+ q?27?27 (- uninterp?7?7)) 0)
                (<= (+ r?29?29 (- uninterp?8?8)) 0)
                (<= (+ p?30?30 (- uninterp?9?9)) 0) (<= (- uninterp?10?10) 0)
                (<= (+ |k'?20?20| (- uninterp?10?10)) 0)
                (<= uninterp?10?10 0)
                (= (+ term_to_project_onto9_integralized
                        (- (+ |counter'?26?26| (- counter?36?36)))) 0)
                (= (+ term_to_project_onto8_integralized
                        (- (+ |a'?17?17| (- a?34?34)))) 0)
                (= (+ term_to_project_onto7_integralized
                        (- (+ |b'?16?16| (- b?35?35)))) 0)
                (= (+ term_to_project_onto6_integralized
                        (- (+ |p'?15?15| (- p?30?30)))) 0)
                (= (+ term_to_project_onto5_integralized
                        (- (+ |q'?14?14| (- q?27?27)))) 0)
                (= (+ term_to_project_onto4_integralized
                        (- (+ |r'?13?13| (- r?29?29)))) 0)
                (= (+ term_to_project_onto3_integralized
                        (- (+ |s'?12?12| (- s?28?28)))) 0)
                (= (+ term_to_project_onto2_integralized
                        (- (+ |c'?25?25| (- c?32?32)))) 0)
                (= (+ term_to_project_onto1_integralized
                        (- (+ |k'?24?24| (- k?31?31)))) 0)
                (= (+ term_to_project_onto0_integralized
                        (- (+ |tmp'?23?23| (- tmp?33?33)))) 0)
                (= (+ term_to_project_onto_integralized
                        (- (+ |tmp___0'?11?11| (- tmp___0)))) 0))))
(check-sat)